# Solution for model GasLib-40
# Objective value = 5.2556320703836725e+01
loadshed[innode_1] 0
loadshed[innode_2] 0
loadshed[innode_3] 0
loadshed[innode_4] 0
loadshed[innode_5] 0
loadshed[innode_6] 0
loadshed[innode_7] 0
loadshed[innode_8] 0
loadshed[source_1] -9.7007897119913533e-02
loadshed[source_2] 6.2687621977163044e-02
loadshed[source_3] 0.366765264439892
loadshed[sink_1] 3.5184257541287745e-01
loadshed[sink_2] 0
loadshed[sink_3] 0
loadshed[sink_4] 0
loadshed[sink_5] 0
loadshed[sink_6] 0
loadshed[sink_7] 0
loadshed[sink_8] 0
loadshed[sink_9] 0
loadshed[sink_10] 0
loadshed[sink_11] 0
loadshed[sink_12] 1
loadshed[sink_13] 0
loadshed[sink_14] 0
loadshed[sink_15] 0
loadshed[sink_16] 0
loadshed[sink_17] 0
loadshed[sink_18] 0
loadshed[sink_19] 0
loadshed[sink_20] 0
loadshed[sink_21] 1
loadshed[sink_22] 0
loadshed[sink_23] 0
loadshed[sink_24] 8.6179232112745729e-01
loadshed[sink_25] 0
loadshed[sink_26] 0
loadshed[sink_27] 0
loadshed[sink_28] 0
loadshed[sink_29] 0
flow[source_1,sink_3] 1.7342628318010298e+02
flow[innode_1,sink_16] 1.6354166666666970e+01
flow[innode_6,sink_13] 1.4370911423445129e+01
flow[sink_13,sink_14] -1.9832552432215387e+00
flow[sink_14,sink_10] -1.8337421909888207e+01
flow[sink_25,sink_26] 1.1261665132649441e+02
flow[sink_26,sink_9] 0
flow[sink_9,sink_18] -1.6354166666669244e+01
flow[sink_26,sink_4] 9.6262484659827734e+01
flow[sink_4,sink_20] -1.4524265140285316e+01
flow[sink_18,sink_6] -3.2708333333335915e+01
flow[sink_25,innode_8] -1.4071794984676660e+02
flow[sink_6,sink_7] -7.6016741214604480e+01
flow[sink_6,sink_22] 26.9542412146019
flow[sink_7,sink_24] 2.2602714148947061e+00
flow[sink_22,sink_1] 1.0600074547935234e+01
flow[sink_24,sink_21] 0
flow[sink_21,sink_12] 0
flow[sink_7,sink_5] -9.4631179296165840e+01
flow[sink_5,sink_17] -1.1098534596283251e+02
flow[sink_17,sink_4] -9.4432583133446386e+01
flow[sink_17,sink_8] -32.9069294960528
flow[sink_3,sink_23] 16.3541666666697
flow[sink_8,sink_20] -4.9261096162719468e+01
flow[sink_25,sink_20] 80.1395279696714
flow[sink_25,sink_15] -8.2763307539511842e+01
flow[sink_15,sink_29] -5.6114463635661281e+01
flow[sink_29,sink_28] 1.6354166666667879e+01
flow[sink_29,sink_2] 5.9357177237183890e+01
flow[sink_2,sink_15] 4.3003010570517219e+01
flow[sink_29,innode_7] -1.4817997420617974e+02
flow[innode_4,sink_19] 8.3754088576555432e+01
flow[sink_19,innode_3] 3.2890877397110131e+01
flow[innode_4,innode_5] 1.6354166666679703e+01
flow[sink_27,innode_5] -1.6354166666679703e+01
flow[sink_27,sink_19] 0
flow[sink_10,sink_11] 3.2708333333333641e+01
flow[sink_10,innode_2] -3.4509044512778559e+01
flow[sink_10,innode_3] -3.2890877397110131e+01
flow[innode_6,sink_25] -1.4370911423445129e+01
flow[sink_11,innode_1] 1.6354166666666970e+01
flow[sink_19,innode_2] 3.4509044512778559e+01
flow[source_3,innode_4] 1.0010825524323513e+02
flow[source_2,innode_7] 1.4817997420617974e+02
flow[sink_3,innode_8] 1.4071794984676660e+02
pressure[innode_1] 7.5644511628004068e+01
pressure[innode_2] 7.7620158465129734e+01
pressure[innode_3] 7.7547325341621672e+01
pressure[innode_4] 81.01325
pressure[innode_5] 8.1002000741808786e+01
pressure[innode_6] 7.5004553856568819e+01
pressure[innode_7] 81.01325
pressure[innode_8] 8.0433552186570438e+01
pressure[source_1] 81.01325
pressure[source_2] 81.01325
pressure[source_3] 81.01325
pressure[sink_1] 1.0132500000000002e+00
pressure[sink_2] 7.5546431896311276e+01
pressure[sink_3] 8.0433552186570438e+01
pressure[sink_4] 5.4833967801652747e+01
pressure[sink_5] 4.2957459807001356e+01
pressure[sink_6] 2.5575636942513720e+00
pressure[sink_7] 3.6010923546411613e+00
pressure[sink_8] 5.2466729796096750e+01
pressure[sink_9] 1.0924113149451342e+00
pressure[sink_10] 7.5796212935607613e+01
pressure[sink_11] 7.5644511628004068e+01
pressure[sink_12] 1.01325
pressure[sink_13] 7.4925329423493764e+01
pressure[sink_14] 7.4928878627687510e+01
pressure[sink_15] 75.4060365445094
pressure[sink_16] 7.4622861793186388e+01
pressure[sink_17] 5.1225065856110078e+01
pressure[sink_18] 1.6841538087448886e+00
pressure[sink_19] 7.7620158465129734e+01
pressure[sink_20] 5.5899535426491148e+01
pressure[sink_21] 1.01325
pressure[sink_22] 1.7027398676640630e+00
pressure[sink_23] 8.0268834174910651e+01
pressure[sink_24] 1.01325
pressure[sink_25] 7.5004553856568819e+01
pressure[sink_26] 6.7073029239735519e+01
pressure[sink_27] 8.0866291377726043e+01
pressure[sink_28] 7.6754733910749536e+01
pressure[sink_29] 7.7050016184366712e+01
interdiction[source_1,sink_3] 0
interdiction[innode_1,sink_16] 0
interdiction[innode_6,sink_13] 0
interdiction[sink_13,sink_14] 0
interdiction[sink_14,sink_10] 0
interdiction[sink_25,sink_26] 0
interdiction[sink_26,sink_9] 1
interdiction[sink_9,sink_18] 0
interdiction[sink_26,sink_4] 0
interdiction[sink_4,sink_20] 0
interdiction[sink_18,sink_6] 0
interdiction[sink_25,innode_8] 0
interdiction[sink_6,sink_7] 0
interdiction[sink_6,sink_22] 0
interdiction[sink_7,sink_24] 0
interdiction[sink_22,sink_1] 0
interdiction[sink_24,sink_21] 0
interdiction[sink_21,sink_12] 0
interdiction[sink_7,sink_5] 0
interdiction[sink_5,sink_17] 0
interdiction[sink_17,sink_4] 0
interdiction[sink_17,sink_8] 0
interdiction[sink_3,sink_23] 0
interdiction[sink_8,sink_20] 0
interdiction[sink_25,sink_20] 0
interdiction[sink_25,sink_15] 0
interdiction[sink_15,sink_29] 0
interdiction[sink_29,sink_28] 0
interdiction[sink_29,sink_2] 0
interdiction[sink_2,sink_15] 0
interdiction[sink_29,innode_7] 0
interdiction[innode_4,sink_19] 0
interdiction[sink_19,innode_3] 0
interdiction[innode_4,innode_5] 0
interdiction[sink_27,innode_5] 0
interdiction[sink_27,sink_19] 1
interdiction[sink_10,sink_11] 0
interdiction[sink_10,innode_2] 0
interdiction[sink_10,innode_3] 0
interdiction[innode_6,sink_25] 0
interdiction[sink_11,innode_1] 0
interdiction[sink_19,innode_2] 0
interdiction[source_3,innode_4] 0
interdiction[source_2,innode_7] 0
interdiction[sink_3,innode_8] 0
WCcheckFlow[source_1,sink_3] 39
WCcheckFlow[innode_1,sink_16] 1
WCcheckFlow[innode_6,sink_13] 13
WCcheckFlow[sink_13,sink_14] 12
WCcheckFlow[sink_14,sink_10] 11
WCcheckFlow[sink_25,sink_26] 15
WCcheckFlow[sink_26,sink_9] 0
WCcheckFlow[sink_9,sink_18] -1
WCcheckFlow[sink_26,sink_4] 14
WCcheckFlow[sink_4,sink_20] 1
WCcheckFlow[sink_18,sink_6] -2
WCcheckFlow[sink_25,innode_8] -36
WCcheckFlow[sink_6,sink_7] -5
WCcheckFlow[sink_6,sink_22] 2
WCcheckFlow[sink_7,sink_24] 3
WCcheckFlow[sink_22,sink_1] 1
WCcheckFlow[sink_24,sink_21] 2
WCcheckFlow[sink_21,sink_12] 1
WCcheckFlow[sink_7,sink_5] -9
WCcheckFlow[sink_5,sink_17] -10
WCcheckFlow[sink_17,sink_4] -12
WCcheckFlow[sink_17,sink_8] 1
WCcheckFlow[sink_3,sink_23] 1
WCcheckFlow[sink_8,sink_20] 0
WCcheckFlow[sink_25,sink_20] 0
WCcheckFlow[sink_25,sink_15] 6
WCcheckFlow[sink_15,sink_29] 5
WCcheckFlow[sink_29,sink_28] 1
WCcheckFlow[sink_29,sink_2] 1
WCcheckFlow[sink_2,sink_15] 0
WCcheckFlow[sink_29,innode_7] 2
WCcheckFlow[innode_4,sink_19] -4
WCcheckFlow[sink_19,innode_3] -5
WCcheckFlow[innode_4,innode_5] 2
WCcheckFlow[sink_27,innode_5] -1
WCcheckFlow[sink_27,sink_19] 0
WCcheckFlow[sink_10,sink_11] 3
WCcheckFlow[sink_10,innode_2] 1
WCcheckFlow[sink_10,innode_3] 6
WCcheckFlow[innode_6,sink_25] -14
WCcheckFlow[sink_11,innode_1] 2
WCcheckFlow[sink_19,innode_2] 0
WCcheckFlow[source_3,innode_4] -1
WCcheckFlow[source_2,innode_7] -1
WCcheckFlow[sink_3,innode_8] 37
